1220743
28,45,58,83,50,1,80,93,106,15,24,82,2,62,19,43,84,42,60,31,94,5,29,102,55,73,91,78,3,66,22,14,21,63,96,46,70,6,87,64,41,59,11,35,27,7,39,67,54,105,77,32,107,92,95,86,61,18,72,17,49,75,98,104,12,20,47,16,79,52,99,101,53,57,103,90,88,10,48,30,38,13,69,68,26,85,74,56,71,37,40,25,36,8,76,65,9,108,23,89,44,4,0,34,97,100,81,33,51
